p cnf 180 1089
1 0
-2 0
-3 0
-4 0
-5 0
31 6 0
-31 -6 0
6 7 8 9 10 0
-6 -7 0
-6 -8 0
-6 -9 0
-6 -10 0
-7 -8 0
-7 -9 0
-7 -10 0
-8 -9 0
-8 -10 0
-9 -10 0
-6 36 1 0
-6 36 11 0
-6 1 11 0
-7 37 2 0
-7 37 12 0
-7 2 12 0
-8 38 3 0
-8 38 13 0
-8 3 13 0
-9 39 4 0
-9 39 14 0
-9 4 14 0
-10 40 5 0
-10 40 15 0
-10 5 15 0
-6 -36 -1 -11 0
-7 -37 -2 -12 0
-8 -38 -3 -13 0
-9 -39 -4 -14 0
-10 -40 -5 -15 0
11 0
-12 0
-13 0
-14 0
-15 0
41 6 16 0
-41 -6 0
-41 -16 0
-6 -16 0
17 0
-16 0
-18 0
-19 0
-20 0
47 12 22 0
-47 -12 0
-47 -22 0
-12 -22 0
23 0
-21 0
-22 0
-24 0
-25 0
53 18 28 0
-53 -18 0
-53 -28 0
-18 -28 0
26 27 28 29 30 0
-26 -27 0
-26 -28 0
-26 -29 0
-26 -30 0
-27 -28 0
-27 -29 0
-27 -30 0
-28 -29 0
-28 -30 0
-29 -30 0
-26 56 0
-26 21 0
-27 57 0
-27 22 0
-28 58 0
-28 23 0
-29 59 0
-29 24 0
-30 60 0
-30 25 0
31 32 33 34 35 0
-31 -32 0
-31 -33 0
-31 -34 0
-31 -35 0
-32 -33 0
-32 -34 0
-32 -35 0
-33 -34 0
-33 -35 0
-34 -35 0
-31 61 1 0
-31 61 36 0
-31 1 36 0
-32 62 2 0
-32 62 37 0
-32 2 37 0
-33 63 3 0
-33 63 38 0
-33 3 38 0
-34 64 4 0
-34 64 39 0
-34 4 39 0
-35 65 5 0
-35 65 40 0
-35 5 40 0
-31 -61 -1 -36 0
-32 -62 -2 -37 0
-33 -63 -3 -38 0
-34 -64 -4 -39 0
-35 -65 -5 -40 0
36 37 38 39 40 0
-36 -37 0
-36 -38 0
-36 -39 0
-36 -40 0
-37 -38 0
-37 -39 0
-37 -40 0
-38 -39 0
-38 -40 0
-39 -40 0
-36 66 6 41 0
-36 66 6 31 0
-36 66 41 31 0
-36 6 41 31 0
-37 67 7 42 0
-37 67 7 32 0
-37 67 42 32 0
-37 7 42 32 0
-38 68 8 43 0
-38 68 8 33 0
-38 68 43 33 0
-38 8 43 33 0
-39 69 9 44 0
-39 69 9 34 0
-39 69 44 34 0
-39 9 44 34 0
-40 70 10 45 0
-40 70 10 35 0
-40 70 45 35 0
-40 10 45 35 0
-36 -66 -6 -41 0
-36 -66 -6 -31 0
-36 -66 -41 -31 0
-36 -6 -41 -31 0
-37 -67 -7 -42 0
-37 -67 -7 -32 0
-37 -67 -42 -32 0
-37 -7 -42 -32 0
-38 -68 -8 -43 0
-38 -68 -8 -33 0
-38 -68 -43 -33 0
-38 -8 -43 -33 0
-39 -69 -9 -44 0
-39 -69 -9 -34 0
-39 -69 -44 -34 0
-39 -9 -44 -34 0
-40 -70 -10 -45 0
-40 -70 -10 -35 0
-40 -70 -45 -35 0
-40 -10 -45 -35 0
41 42 43 44 45 0
-41 -42 0
-41 -43 0
-41 -44 0
-41 -45 0
-42 -43 0
-42 -44 0
-42 -45 0
-43 -44 0
-43 -45 0
-44 -45 0
-41 71 11 46 0
-41 71 11 36 0
-41 71 46 36 0
-41 11 46 36 0
-42 72 12 47 0
-42 72 12 37 0
-42 72 47 37 0
-42 12 47 37 0
-43 73 13 48 0
-43 73 13 38 0
-43 73 48 38 0
-43 13 48 38 0
-44 74 14 49 0
-44 74 14 39 0
-44 74 49 39 0
-44 14 49 39 0
-45 75 15 50 0
-45 75 15 40 0
-45 75 50 40 0
-45 15 50 40 0
-41 -71 -11 -46 0
-41 -71 -11 -36 0
-41 -71 -46 -36 0
-41 -11 -46 -36 0
-42 -72 -12 -47 0
-42 -72 -12 -37 0
-42 -72 -47 -37 0
-42 -12 -47 -37 0
-43 -73 -13 -48 0
-43 -73 -13 -38 0
-43 -73 -48 -38 0
-43 -13 -48 -38 0
-44 -74 -14 -49 0
-44 -74 -14 -39 0
-44 -74 -49 -39 0
-44 -14 -49 -39 0
-45 -75 -15 -50 0
-45 -75 -15 -40 0
-45 -75 -50 -40 0
-45 -15 -50 -40 0
46 47 48 49 50 0
-46 -47 0
-46 -48 0
-46 -49 0
-46 -50 0
-47 -48 0
-47 -49 0
-47 -50 0
-48 -49 0
-48 -50 0
-49 -50 0
-46 76 16 51 0
-46 76 16 41 0
-46 76 51 41 0
-46 16 51 41 0
-47 77 17 52 0
-47 77 17 42 0
-47 77 52 42 0
-47 17 52 42 0
-48 78 18 53 0
-48 78 18 43 0
-48 78 53 43 0
-48 18 53 43 0
-49 79 19 54 0
-49 79 19 44 0
-49 79 54 44 0
-49 19 54 44 0
-50 80 20 55 0
-50 80 20 45 0
-50 80 55 45 0
-50 20 55 45 0
-46 -76 -16 -51 0
-46 -76 -16 -41 0
-46 -76 -51 -41 0
-46 -16 -51 -41 0
-47 -77 -17 -52 0
-47 -77 -17 -42 0
-47 -77 -52 -42 0
-47 -17 -52 -42 0
-48 -78 -18 -53 0
-48 -78 -18 -43 0
-48 -78 -53 -43 0
-48 -18 -53 -43 0
-49 -79 -19 -54 0
-49 -79 -19 -44 0
-49 -79 -54 -44 0
-49 -19 -54 -44 0
-50 -80 -20 -55 0
-50 -80 -20 -45 0
-50 -80 -55 -45 0
-50 -20 -55 -45 0
51 52 53 54 55 0
-51 -52 0
-51 -53 0
-51 -54 0
-51 -55 0
-52 -53 0
-52 -54 0
-52 -55 0
-53 -54 0
-53 -55 0
-54 -55 0
-51 81 21 56 0
-51 81 21 46 0
-51 81 56 46 0
-51 21 56 46 0
-52 82 22 57 0
-52 82 22 47 0
-52 82 57 47 0
-52 22 57 47 0
-53 83 23 58 0
-53 83 23 48 0
-53 83 58 48 0
-53 23 58 48 0
-54 84 24 59 0
-54 84 24 49 0
-54 84 59 49 0
-54 24 59 49 0
-55 85 25 60 0
-55 85 25 50 0
-55 85 60 50 0
-55 25 60 50 0
-51 -81 -21 -56 0
-51 -81 -21 -46 0
-51 -81 -56 -46 0
-51 -21 -56 -46 0
-52 -82 -22 -57 0
-52 -82 -22 -47 0
-52 -82 -57 -47 0
-52 -22 -57 -47 0
-53 -83 -23 -58 0
-53 -83 -23 -48 0
-53 -83 -58 -48 0
-53 -23 -58 -48 0
-54 -84 -24 -59 0
-54 -84 -24 -49 0
-54 -84 -59 -49 0
-54 -24 -59 -49 0
-55 -85 -25 -60 0
-55 -85 -25 -50 0
-55 -85 -60 -50 0
-55 -25 -60 -50 0
56 57 58 59 60 0
-56 -57 0
-56 -58 0
-56 -59 0
-56 -60 0
-57 -58 0
-57 -59 0
-57 -60 0
-58 -59 0
-58 -60 0
-59 -60 0
-56 86 26 0
-56 86 51 0
-56 26 51 0
-57 87 27 0
-57 87 52 0
-57 27 52 0
-58 88 28 0
-58 88 53 0
-58 28 53 0
-59 89 29 0
-59 89 54 0
-59 29 54 0
-60 90 30 0
-60 90 55 0
-60 30 55 0
-56 -86 -26 -51 0
-57 -87 -27 -52 0
-58 -88 -28 -53 0
-59 -89 -29 -54 0
-60 -90 -30 -55 0
61 62 63 64 65 0
-61 -62 0
-61 -63 0
-61 -64 0
-61 -65 0
-62 -63 0
-62 -64 0
-62 -65 0
-63 -64 0
-63 -65 0
-64 -65 0
-61 91 31 0
-61 91 66 0
-61 31 66 0
-62 92 32 0
-62 92 67 0
-62 32 67 0
-63 93 33 0
-63 93 68 0
-63 33 68 0
-64 94 34 0
-64 94 69 0
-64 34 69 0
-65 95 35 0
-65 95 70 0
-65 35 70 0
-61 -91 -31 -66 0
-62 -92 -32 -67 0
-63 -93 -33 -68 0
-64 -94 -34 -69 0
-65 -95 -35 -70 0
69 0
-66 0
-67 0
-68 0
-70 0
99 39 74 64 0
-99 -39 0
-99 -74 0
-99 -64 0
-39 -74 0
-39 -64 0
-74 -64 0
73 0
-71 0
-72 0
-74 0
-75 0
103 43 78 68 0
-103 -43 0
-103 -78 0
-103 -68 0
-43 -78 0
-43 -68 0
-78 -68 0
80 0
-76 0
-77 0
-78 0
-79 0
110 50 85 75 0
-110 -50 0
-110 -85 0
-110 -75 0
-50 -85 0
-50 -75 0
-85 -75 0
81 82 83 84 85 0
-81 -82 0
-81 -83 0
-81 -84 0
-81 -85 0
-82 -83 0
-82 -84 0
-82 -85 0
-83 -84 0
-83 -85 0
-84 -85 0
-81 111 51 86 0
-81 111 51 76 0
-81 111 86 76 0
-81 51 86 76 0
-82 112 52 87 0
-82 112 52 77 0
-82 112 87 77 0
-82 52 87 77 0
-83 113 53 88 0
-83 113 53 78 0
-83 113 88 78 0
-83 53 88 78 0
-84 114 54 89 0
-84 114 54 79 0
-84 114 89 79 0
-84 54 89 79 0
-85 115 55 90 0
-85 115 55 80 0
-85 115 90 80 0
-85 55 90 80 0
-81 -111 -51 -86 0
-81 -111 -51 -76 0
-81 -111 -86 -76 0
-81 -51 -86 -76 0
-82 -112 -52 -87 0
-82 -112 -52 -77 0
-82 -112 -87 -77 0
-82 -52 -87 -77 0
-83 -113 -53 -88 0
-83 -113 -53 -78 0
-83 -113 -88 -78 0
-83 -53 -88 -78 0
-84 -114 -54 -89 0
-84 -114 -54 -79 0
-84 -114 -89 -79 0
-84 -54 -89 -79 0
-85 -115 -55 -90 0
-85 -115 -55 -80 0
-85 -115 -90 -80 0
-85 -55 -90 -80 0
86 87 88 89 90 0
-86 -87 0
-86 -88 0
-86 -89 0
-86 -90 0
-87 -88 0
-87 -89 0
-87 -90 0
-88 -89 0
-88 -90 0
-89 -90 0
-86 116 56 0
-86 116 81 0
-86 56 81 0
-87 117 57 0
-87 117 82 0
-87 57 82 0
-88 118 58 0
-88 118 83 0
-88 58 83 0
-89 119 59 0
-89 119 84 0
-89 59 84 0
-90 120 60 0
-90 120 85 0
-90 60 85 0
-86 -116 -56 -81 0
-87 -117 -57 -82 0
-88 -118 -58 -83 0
-89 -119 -59 -84 0
-90 -120 -60 -85 0
91 92 93 94 95 0
-91 -92 0
-91 -93 0
-91 -94 0
-91 -95 0
-92 -93 0
-92 -94 0
-92 -95 0
-93 -94 0
-93 -95 0
-94 -95 0
-91 121 61 0
-91 121 96 0
-91 61 96 0
-92 122 62 0
-92 122 97 0
-92 62 97 0
-93 123 63 0
-93 123 98 0
-93 63 98 0
-94 124 64 0
-94 124 99 0
-94 64 99 0
-95 125 65 0
-95 125 100 0
-95 65 100 0
-91 -121 -61 -96 0
-92 -122 -62 -97 0
-93 -123 -63 -98 0
-94 -124 -64 -99 0
-95 -125 -65 -100 0
96 97 98 99 100 0
-96 -97 0
-96 -98 0
-96 -99 0
-96 -100 0
-97 -98 0
-97 -99 0
-97 -100 0
-98 -99 0
-98 -100 0
-99 -100 0
-96 126 66 101 0
-96 126 66 91 0
-96 126 101 91 0
-96 66 101 91 0
-97 127 67 102 0
-97 127 67 92 0
-97 127 102 92 0
-97 67 102 92 0
-98 128 68 103 0
-98 128 68 93 0
-98 128 103 93 0
-98 68 103 93 0
-99 129 69 104 0
-99 129 69 94 0
-99 129 104 94 0
-99 69 104 94 0
-100 130 70 105 0
-100 130 70 95 0
-100 130 105 95 0
-100 70 105 95 0
-96 -126 -66 -101 0
-96 -126 -66 -91 0
-96 -126 -101 -91 0
-96 -66 -101 -91 0
-97 -127 -67 -102 0
-97 -127 -67 -92 0
-97 -127 -102 -92 0
-97 -67 -102 -92 0
-98 -128 -68 -103 0
-98 -128 -68 -93 0
-98 -128 -103 -93 0
-98 -68 -103 -93 0
-99 -129 -69 -104 0
-99 -129 -69 -94 0
-99 -129 -104 -94 0
-99 -69 -104 -94 0
-100 -130 -70 -105 0
-100 -130 -70 -95 0
-100 -130 -105 -95 0
-100 -70 -105 -95 0
105 0
-101 0
-102 0
-103 0
-104 0
135 75 110 100 0
-135 -75 0
-135 -110 0
-135 -100 0
-75 -110 0
-75 -100 0
-110 -100 0
106 107 108 109 110 0
-106 -107 0
-106 -108 0
-106 -109 0
-106 -110 0
-107 -108 0
-107 -109 0
-107 -110 0
-108 -109 0
-108 -110 0
-109 -110 0
-106 136 76 111 0
-106 136 76 101 0
-106 136 111 101 0
-106 76 111 101 0
-107 137 77 112 0
-107 137 77 102 0
-107 137 112 102 0
-107 77 112 102 0
-108 138 78 113 0
-108 138 78 103 0
-108 138 113 103 0
-108 78 113 103 0
-109 139 79 114 0
-109 139 79 104 0
-109 139 114 104 0
-109 79 114 104 0
-110 140 80 115 0
-110 140 80 105 0
-110 140 115 105 0
-110 80 115 105 0
-106 -136 -76 -111 0
-106 -136 -76 -101 0
-106 -136 -111 -101 0
-106 -76 -111 -101 0
-107 -137 -77 -112 0
-107 -137 -77 -102 0
-107 -137 -112 -102 0
-107 -77 -112 -102 0
-108 -138 -78 -113 0
-108 -138 -78 -103 0
-108 -138 -113 -103 0
-108 -78 -113 -103 0
-109 -139 -79 -114 0
-109 -139 -79 -104 0
-109 -139 -114 -104 0
-109 -79 -114 -104 0
-110 -140 -80 -115 0
-110 -140 -80 -105 0
-110 -140 -115 -105 0
-110 -80 -115 -105 0
111 112 113 114 115 0
-111 -112 0
-111 -113 0
-111 -114 0
-111 -115 0
-112 -113 0
-112 -114 0
-112 -115 0
-113 -114 0
-113 -115 0
-114 -115 0
-111 141 81 116 0
-111 141 81 106 0
-111 141 116 106 0
-111 81 116 106 0
-112 142 82 117 0
-112 142 82 107 0
-112 142 117 107 0
-112 82 117 107 0
-113 143 83 118 0
-113 143 83 108 0
-113 143 118 108 0
-113 83 118 108 0
-114 144 84 119 0
-114 144 84 109 0
-114 144 119 109 0
-114 84 119 109 0
-115 145 85 120 0
-115 145 85 110 0
-115 145 120 110 0
-115 85 120 110 0
-111 -141 -81 -116 0
-111 -141 -81 -106 0
-111 -141 -116 -106 0
-111 -81 -116 -106 0
-112 -142 -82 -117 0
-112 -142 -82 -107 0
-112 -142 -117 -107 0
-112 -82 -117 -107 0
-113 -143 -83 -118 0
-113 -143 -83 -108 0
-113 -143 -118 -108 0
-113 -83 -118 -108 0
-114 -144 -84 -119 0
-114 -144 -84 -109 0
-114 -144 -119 -109 0
-114 -84 -119 -109 0
-115 -145 -85 -120 0
-115 -145 -85 -110 0
-115 -145 -120 -110 0
-115 -85 -120 -110 0
116 117 118 119 120 0
-116 -117 0
-116 -118 0
-116 -119 0
-116 -120 0
-117 -118 0
-117 -119 0
-117 -120 0
-118 -119 0
-118 -120 0
-119 -120 0
-116 146 86 0
-116 146 111 0
-116 86 111 0
-117 147 87 0
-117 147 112 0
-117 87 112 0
-118 148 88 0
-118 148 113 0
-118 88 113 0
-119 149 89 0
-119 149 114 0
-119 89 114 0
-120 150 90 0
-120 150 115 0
-120 90 115 0
-116 -146 -86 -111 0
-117 -147 -87 -112 0
-118 -148 -88 -113 0
-119 -149 -89 -114 0
-120 -150 -90 -115 0
121 122 123 124 125 0
-121 -122 0
-121 -123 0
-121 -124 0
-121 -125 0
-122 -123 0
-122 -124 0
-122 -125 0
-123 -124 0
-123 -125 0
-124 -125 0
-121 151 91 0
-121 151 126 0
-121 91 126 0
-122 152 92 0
-122 152 127 0
-122 92 127 0
-123 153 93 0
-123 153 128 0
-123 93 128 0
-124 154 94 0
-124 154 129 0
-124 94 129 0
-125 155 95 0
-125 155 130 0
-125 95 130 0
-121 -151 -91 -126 0
-122 -152 -92 -127 0
-123 -153 -93 -128 0
-124 -154 -94 -129 0
-125 -155 -95 -130 0
126 127 128 129 130 0
-126 -127 0
-126 -128 0
-126 -129 0
-126 -130 0
-127 -128 0
-127 -129 0
-127 -130 0
-128 -129 0
-128 -130 0
-129 -130 0
-126 156 96 131 0
-126 156 96 121 0
-126 156 131 121 0
-126 96 131 121 0
-127 157 97 132 0
-127 157 97 122 0
-127 157 132 122 0
-127 97 132 122 0
-128 158 98 133 0
-128 158 98 123 0
-128 158 133 123 0
-128 98 133 123 0
-129 159 99 134 0
-129 159 99 124 0
-129 159 134 124 0
-129 99 134 124 0
-130 160 100 135 0
-130 160 100 125 0
-130 160 135 125 0
-130 100 135 125 0
-126 -156 -96 -131 0
-126 -156 -96 -121 0
-126 -156 -131 -121 0
-126 -96 -131 -121 0
-127 -157 -97 -132 0
-127 -157 -97 -122 0
-127 -157 -132 -122 0
-127 -97 -132 -122 0
-128 -158 -98 -133 0
-128 -158 -98 -123 0
-128 -158 -133 -123 0
-128 -98 -133 -123 0
-129 -159 -99 -134 0
-129 -159 -99 -124 0
-129 -159 -134 -124 0
-129 -99 -134 -124 0
-130 -160 -100 -135 0
-130 -160 -100 -125 0
-130 -160 -135 -125 0
-130 -100 -135 -125 0
134 0
-131 0
-132 0
-133 0
-135 0
164 104 139 129 0
-164 -104 0
-164 -139 0
-164 -129 0
-104 -139 0
-104 -129 0
-139 -129 0
137 0
-136 0
-138 0
-139 0
-140 0
167 107 142 132 0
-167 -107 0
-167 -142 0
-167 -132 0
-107 -142 0
-107 -132 0
-142 -132 0
141 142 143 144 145 0
-141 -142 0
-141 -143 0
-141 -144 0
-141 -145 0
-142 -143 0
-142 -144 0
-142 -145 0
-143 -144 0
-143 -145 0
-144 -145 0
-141 171 111 146 0
-141 171 111 136 0
-141 171 146 136 0
-141 111 146 136 0
-142 172 112 147 0
-142 172 112 137 0
-142 172 147 137 0
-142 112 147 137 0
-143 173 113 148 0
-143 173 113 138 0
-143 173 148 138 0
-143 113 148 138 0
-144 174 114 149 0
-144 174 114 139 0
-144 174 149 139 0
-144 114 149 139 0
-145 175 115 150 0
-145 175 115 140 0
-145 175 150 140 0
-145 115 150 140 0
-141 -171 -111 -146 0
-141 -171 -111 -136 0
-141 -171 -146 -136 0
-141 -111 -146 -136 0
-142 -172 -112 -147 0
-142 -172 -112 -137 0
-142 -172 -147 -137 0
-142 -112 -147 -137 0
-143 -173 -113 -148 0
-143 -173 -113 -138 0
-143 -173 -148 -138 0
-143 -113 -148 -138 0
-144 -174 -114 -149 0
-144 -174 -114 -139 0
-144 -174 -149 -139 0
-144 -114 -149 -139 0
-145 -175 -115 -150 0
-145 -175 -115 -140 0
-145 -175 -150 -140 0
-145 -115 -150 -140 0
146 147 148 149 150 0
-146 -147 0
-146 -148 0
-146 -149 0
-146 -150 0
-147 -148 0
-147 -149 0
-147 -150 0
-148 -149 0
-148 -150 0
-149 -150 0
-146 176 116 0
-146 176 141 0
-146 116 141 0
-147 177 117 0
-147 177 142 0
-147 117 142 0
-148 178 118 0
-148 178 143 0
-148 118 143 0
-149 179 119 0
-149 179 144 0
-149 119 144 0
-150 180 120 0
-150 180 145 0
-150 120 145 0
-146 -176 -116 -141 0
-147 -177 -117 -142 0
-148 -178 -118 -143 0
-149 -179 -119 -144 0
-150 -180 -120 -145 0
151 152 153 154 155 0
-151 -152 0
-151 -153 0
-151 -154 0
-151 -155 0
-152 -153 0
-152 -154 0
-152 -155 0
-153 -154 0
-153 -155 0
-154 -155 0
-151 121 0
-151 156 0
-152 122 0
-152 157 0
-153 123 0
-153 158 0
-154 124 0
-154 159 0
-155 125 0
-155 160 0
156 157 158 159 160 0
-156 -157 0
-156 -158 0
-156 -159 0
-156 -160 0
-157 -158 0
-157 -159 0
-157 -160 0
-158 -159 0
-158 -160 0
-159 -160 0
-156 151 126 0
-156 126 161 0
-156 151 161 0
-157 152 127 0
-157 127 162 0
-157 152 162 0
-158 153 128 0
-158 128 163 0
-158 153 163 0
-159 154 129 0
-159 129 164 0
-159 154 164 0
-160 155 130 0
-160 130 165 0
-160 155 165 0
-156 -126 -151 -161 0
-157 -127 -152 -162 0
-158 -128 -153 -163 0
-159 -129 -154 -164 0
-160 -130 -155 -165 0
161 162 163 164 165 0
-161 -162 0
-161 -163 0
-161 -164 0
-161 -165 0
-162 -163 0
-162 -164 0
-162 -165 0
-163 -164 0
-163 -165 0
-164 -165 0
-161 156 131 0
-161 131 166 0
-161 156 166 0
-162 157 132 0
-162 132 167 0
-162 157 167 0
-163 158 133 0
-163 133 168 0
-163 158 168 0
-164 159 134 0
-164 134 169 0
-164 159 169 0
-165 160 135 0
-165 135 170 0
-165 160 170 0
-161 -131 -156 -166 0
-162 -132 -157 -167 0
-163 -133 -158 -168 0
-164 -134 -159 -169 0
-165 -135 -160 -170 0
166 167 168 169 170 0
-166 -167 0
-166 -168 0
-166 -169 0
-166 -170 0
-167 -168 0
-167 -169 0
-167 -170 0
-168 -169 0
-168 -170 0
-169 -170 0
-166 161 136 0
-166 136 171 0
-166 161 171 0
-167 162 137 0
-167 137 172 0
-167 162 172 0
-168 163 138 0
-168 138 173 0
-168 163 173 0
-169 164 139 0
-169 139 174 0
-169 164 174 0
-170 165 140 0
-170 140 175 0
-170 165 175 0
-166 -136 -161 -171 0
-167 -137 -162 -172 0
-168 -138 -163 -173 0
-169 -139 -164 -174 0
-170 -140 -165 -175 0
171 172 173 174 175 0
-171 -172 0
-171 -173 0
-171 -174 0
-171 -175 0
-172 -173 0
-172 -174 0
-172 -175 0
-173 -174 0
-173 -175 0
-174 -175 0
-171 166 141 0
-171 141 176 0
-171 166 176 0
-172 167 142 0
-172 142 177 0
-172 167 177 0
-173 168 143 0
-173 143 178 0
-173 168 178 0
-174 169 144 0
-174 144 179 0
-174 169 179 0
-175 170 145 0
-175 145 180 0
-175 170 180 0
-171 -141 -166 -176 0
-172 -142 -167 -177 0
-173 -143 -168 -178 0
-174 -144 -169 -179 0
-175 -145 -170 -180 0
176 177 178 179 180 0
-176 -177 0
-176 -178 0
-176 -179 0
-176 -180 0
-177 -178 0
-177 -179 0
-177 -180 0
-178 -179 0
-178 -180 0
-179 -180 0
-176 146 0
-176 171 0
-177 147 0
-177 172 0
-178 148 0
-178 173 0
-179 149 0
-179 174 0
-180 150 0
-180 175 0
6 36 96 126 156 0
32 37 42 47 52 57 0
62 82 87 0
92 97 107 112 117 0
33 38 43 48 53 58 0
48 108 168 0
94 99 109 114 119 0